objective value:                            547316792
t_x1201                                             1 	(obj:95221042)
t_x1209                                             1 	(obj:10239374)
t_x1210                                             1 	(obj:3769124)
t_x1211                                             1 	(obj:12187123)
t_x1212                                             1 	(obj:55401476)
t_x1213                                             1 	(obj:27761120)
t_x1214                                             1 	(obj:18485249)
t_x1215                                             1 	(obj:42958460)
t_x1216                                             1 	(obj:8318870)
t_x1217                                             1 	(obj:32466366)
t_x1218                                             1 	(obj:122248238)
t_x1219                                             1 	(obj:3959372)
t_x1222                                             1 	(obj:4907123)
t_x1223                                             1 	(obj:13794991)
t_x1225                                             1 	(obj:95598864)
